0 0 0 0
0 1 2 0
0 2 2 0
0 3 0 0
0 4 0 8
0 5 1 10
0 6 1 14
0 7 0 11
0 8 0 2
0 9 2 16
0 10 2 10
0 11 1 4
0 12 1 11
0 13 0 12
0 14 2 18
0 15 1 19
0 16 2 17
0 17 1 17
0 18 2 21
0 19 1 23
0 20 1 18
0 21 2 8
0 22 0 26
0 23 1 27
0 24 0 29
0 25 0 28
0 26 0 27
0 27 0 29
0 28 1 30
0 29 2 25
0 30 0 31
0 31 0 35
